(set-logic SLIA)
(constraint (= (f "you can do anything but you cant do everything." 4) "anything"))
(constraint (= (f "you can do anything but you cant do everything." 1) "you"))
(constraint (= (f "you can do anything but you cant do everything." 2) "can"))
(constraint (= (f "you can do anything but you cant do everything." 3) "do"))
(check-synth)
(synth-fun f ((_arg_0 String) (_arg_1 Int)) String ((Start String (ntString)) (ntString String ((Str A) (str.++ ntString A))) (A String ((Str ConstString) (SubStr X P P))) (P Int ((Int ntInt) (Pos X Pattern ntInt Direction))) (Pattern String ((Str ConstString) "ProperCase" "CAPS" "lowercase" "Digits" "Alphabets" "Alphanumeric" "WhiteSpace" "ProperCaseWSpaces" "CAPSWSpaces" "lowercaseSpaces" "AlphabetsWSpaces")) (X String (_arg_0)) (ConstString String (_arg_0 "" " ")) (Direction Int (0 1)) (ntInt Int (-5 -4 -3 -2 -1 0 1 2 3 4 5 _arg_1))))
